2 ANNO/Ricerca operativa/Esercizi_AMPL/15/es15.dat
set J := x1 x2 x3 x4;
set I1 := r1;
set I2 := r2;
set I3 := r3;

param c:=
x1 2
x2 4
x3 2
x4 -1;

param b1:=
r1 2;
param b2:=
r2 4;
param b3:=
r3 5;
param a1:
	x1	x2	x3	x4=
r1	3	1	0	0;
param a2:
	x1	x2	x3	x4=
r2	0	1	2	0;
param a3:
	x1	x2	x3	x4=
r3	0	0	1	4;